<?xml version="1.0" encoding="UTF-8"?><osil xmlns="os.optimizationservices.org"   xmlns:xsi="http://www.w3.org/2001/XMLSchema-instance" xsi:schemaLocation="os.optimizationservices.org http://www.optimizationservices.org/schemas/2.0/OSiL.xsd" ><instanceHeader><name>q_40_0_50_5</name></instanceHeader><instanceData><variables numberOfVariables="40"><var name="x1" ub="1"/><var name="x2" ub="1"/><var name="x3" ub="1"/><var name="x4" ub="1"/><var name="x5" ub="1"/><var name="x6" ub="1"/><var name="x7" ub="1"/><var name="x8" ub="1"/><var name="x9" ub="1"/><var name="x10" ub="1"/><var name="x11" ub="1"/><var name="x12" ub="1"/><var name="x13" ub="1"/><var name="x14" ub="1"/><var name="x15" ub="1"/><var name="x16" ub="1"/><var name="x17" ub="1"/><var name="x18" ub="1"/><var name="x19" ub="1"/><var name="x20" ub="1"/><var name="x21" ub="1"/><var name="x22" ub="1"/><var name="x23" ub="1"/><var name="x24" ub="1"/><var name="x25" ub="1"/><var name="x26" ub="1"/><var name="x27" ub="1"/><var name="x28" ub="1"/><var name="x29" ub="1"/><var name="x30" ub="1"/><var name="x31" ub="1"/><var name="x32" ub="1"/><var name="x33" ub="1"/><var name="x34" ub="1"/><var name="x35" ub="1"/><var name="x36" ub="1"/><var name="x37" ub="1"/><var name="x38" ub="1"/><var name="x39" ub="1"/><var name="x40" ub="1"/></variables><objectives numberOfObjectives="1"><obj maxOrMin="min" name="defObj_x41" numberOfObjCoef="40"><coef idx="0">.8912</coef><coef idx="1">.7631</coef><coef idx="2">.7902</coef><coef idx="3">-.6818</coef><coef idx="4">.276</coef><coef idx="5">-.7009</coef><coef idx="6">.433</coef><coef idx="7">-.1963</coef><coef idx="8">-.895</coef><coef idx="9">.4326</coef><coef idx="10">-.5557</coef><coef idx="11">-.9291</coef><coef idx="12">.1746</coef><coef idx="13">-.5153</coef><coef idx="14">-.1046</coef><coef idx="15">-.4605</coef><coef idx="16">.2194</coef><coef idx="17">.1701</coef><coef idx="18">-.5308</coef><coef idx="19">.6269</coef><coef idx="20">-5.02e-2</coef><coef idx="21">-.8864</coef><coef idx="22">-.2146</coef><coef idx="23">-.9408</coef><coef idx="24">.7589</coef><coef idx="25">.968</coef><coef idx="26">-.7075</coef><coef idx="27">.625</coef><coef idx="28">-.4637</coef><coef idx="29">.118</coef><coef idx="30">.7119</coef><coef idx="31">.8647</coef><coef idx="32">-8.52e-2</coef><coef idx="33">.1836</coef><coef idx="34">-6.94e-2</coef><coef idx="35">-.8141</coef><coef idx="36">.2591</coef><coef idx="37">-8.08e-2</coef><coef idx="38">-4.5e-3</coef><coef idx="39">.4826</coef></obj></objectives><quadraticCoefficients  numberOfQuadraticTerms="410" ><qTerm  idx="-1"  idxOne="0"  idxTwo="1"  coef="-1.7409"/><qTerm  idx="-1"  idxOne="0"  idxTwo="8"  coef="-1.2616"/><qTerm  idx="-1"  idxOne="0"  idxTwo="10"  coef="-1.7679"/><qTerm  idx="-1"  idxOne="0"  idxTwo="14"  coef=".326"/><qTerm  idx="-1"  idxOne="0"  idxTwo="15"  coef=".5467"/><qTerm  idx="-1"  idxOne="0"  idxTwo="16"  coef=".9884"/><qTerm  idx="-1"  idxOne="0"  idxTwo="17"  coef="-1.4644"/><qTerm  idx="-1"  idxOne="0"  idxTwo="18"  coef="1.3321"/><qTerm  idx="-1"  idxOne="0"  idxTwo="21"  coef=".7519"/><qTerm  idx="-1"  idxOne="0"  idxTwo="22"  coef="-1.8626"/><qTerm  idx="-1"  idxOne="0"  idxTwo="24"  coef="-.2287"/><qTerm  idx="-1"  idxOne="0"  idxTwo="26"  coef="1.3245"/><qTerm  idx="-1"  idxOne="0"  idxTwo="30"  coef="-1.1882"/><qTerm  idx="-1"  idxOne="0"  idxTwo="33"  coef="-1.8477"/><qTerm  idx="-1"  idxOne="0"  idxTwo="34"  coef="-.7333"/><qTerm  idx="-1"  idxOne="0"  idxTwo="35"  coef=".1554"/><qTerm  idx="-1"  idxOne="0"  idxTwo="38"  coef=".6081"/><qTerm  idx="-1"  idxOne="1"  idxTwo="2"  coef=".8393"/><qTerm  idx="-1"  idxOne="1"  idxTwo="5"  coef=".698"/><qTerm  idx="-1"  idxOne="1"  idxTwo="6"  coef="-1.5767"/><qTerm  idx="-1"  idxOne="1"  idxTwo="8"  coef="-1.9698"/><qTerm  idx="-1"  idxOne="1"  idxTwo="10"  coef="1.642"/><qTerm  idx="-1"  idxOne="1"  idxTwo="12"  coef="-.3653"/><qTerm  idx="-1"  idxOne="1"  idxTwo="14"  coef="-1.9019"/><qTerm  idx="-1"  idxOne="1"  idxTwo="18"  coef="1.9588"/><qTerm  idx="-1"  idxOne="1"  idxTwo="19"  coef="-1.4504"/><qTerm  idx="-1"  idxOne="1"  idxTwo="20"  coef=".8018"/><qTerm  idx="-1"  idxOne="1"  idxTwo="24"  coef="-.6935"/><qTerm  idx="-1"  idxOne="1"  idxTwo="25"  coef="-.449"/><qTerm  idx="-1"  idxOne="1"  idxTwo="27"  coef=".7211"/><qTerm  idx="-1"  idxOne="1"  idxTwo="28"  coef="-1.4502"/><qTerm  idx="-1"  idxOne="1"  idxTwo="31"  coef="1.4985"/><qTerm  idx="-1"  idxOne="1"  idxTwo="32"  coef="1.0017"/><qTerm  idx="-1"  idxOne="1"  idxTwo="36"  coef=".168"/><qTerm  idx="-1"  idxOne="1"  idxTwo="37"  coef=".4447"/><qTerm  idx="-1"  idxOne="1"  idxTwo="39"  coef=".1701"/><qTerm  idx="-1"  idxOne="2"  idxTwo="6"  coef="-1.0858"/><qTerm  idx="-1"  idxOne="2"  idxTwo="7"  coef=".4528"/><qTerm  idx="-1"  idxOne="2"  idxTwo="11"  coef="1.3034"/><qTerm  idx="-1"  idxOne="2"  idxTwo="12"  coef="1.2659"/><qTerm  idx="-1"  idxOne="2"  idxTwo="13"  coef="1.4778"/><qTerm  idx="-1"  idxOne="2"  idxTwo="17"  coef="-1.6962"/><qTerm  idx="-1"  idxOne="2"  idxTwo="18"  coef="3.39e-2"/><qTerm  idx="-1"  idxOne="2"  idxTwo="20"  coef="-1.2657"/><qTerm  idx="-1"  idxOne="2"  idxTwo="21"  coef=".7385"/><qTerm  idx="-1"  idxOne="2"  idxTwo="22"  coef=".1506"/><qTerm  idx="-1"  idxOne="2"  idxTwo="23"  coef=".3688"/><qTerm  idx="-1"  idxOne="2"  idxTwo="27"  coef=".3436"/><qTerm  idx="-1"  idxOne="2"  idxTwo="28"  coef="-.6643"/><qTerm  idx="-1"  idxOne="2"  idxTwo="29"  coef=".1923"/><qTerm  idx="-1"  idxOne="2"  idxTwo="30"  coef="-1.4958"/><qTerm  idx="-1"  idxOne="2"  idxTwo="31"  coef="-.258"/><qTerm  idx="-1"  idxOne="2"  idxTwo="32"  coef=".4477"/><qTerm  idx="-1"  idxOne="2"  idxTwo="33"  coef="-1.9236"/><qTerm  idx="-1"  idxOne="2"  idxTwo="36"  coef="-.2576"/><qTerm  idx="-1"  idxOne="2"  idxTwo="37"  coef="-1.6732"/><qTerm  idx="-1"  idxOne="3"  idxTwo="4"  coef="1.6244"/><qTerm  idx="-1"  idxOne="3"  idxTwo="6"  coef="1.309"/><qTerm  idx="-1"  idxOne="3"  idxTwo="8"  coef="-.6971"/><qTerm  idx="-1"  idxOne="3"  idxTwo="16"  coef=".2552"/><qTerm  idx="-1"  idxOne="3"  idxTwo="17"  coef="3.71e-2"/><qTerm  idx="-1"  idxOne="3"  idxTwo="18"  coef="-1.3273"/><qTerm  idx="-1"  idxOne="3"  idxTwo="20"  coef="-.2809"/><qTerm  idx="-1"  idxOne="3"  idxTwo="22"  coef="-1.888"/><qTerm  idx="-1"  idxOne="3"  idxTwo="23"  coef=".7693"/><qTerm  idx="-1"  idxOne="3"  idxTwo="24"  coef="-1.0531"/><qTerm  idx="-1"  idxOne="3"  idxTwo="31"  coef="-1.1771"/><qTerm  idx="-1"  idxOne="3"  idxTwo="35"  coef="4.31e-2"/><qTerm  idx="-1"  idxOne="3"  idxTwo="37"  coef="-.967"/><qTerm  idx="-1"  idxOne="4"  idxTwo="5"  coef="-1.9246"/><qTerm  idx="-1"  idxOne="4"  idxTwo="6"  coef="1.2413"/><qTerm  idx="-1"  idxOne="4"  idxTwo="7"  coef=".4727"/><qTerm  idx="-1"  idxOne="4"  idxTwo="12"  coef="-1.4821"/><qTerm  idx="-1"  idxOne="4"  idxTwo="13"  coef="-.1371"/><qTerm  idx="-1"  idxOne="4"  idxTwo="14"  coef=".753"/><qTerm  idx="-1"  idxOne="4"  idxTwo="15"  coef="2.76e-2"/><qTerm  idx="-1"  idxOne="4"  idxTwo="16"  coef="1.7654"/><qTerm  idx="-1"  idxOne="4"  idxTwo="19"  coef="-.1113"/><qTerm  idx="-1"  idxOne="4"  idxTwo="22"  coef="6.12e-2"/><qTerm  idx="-1"  idxOne="4"  idxTwo="23"  coef="1.9109"/><qTerm  idx="-1"  idxOne="4"  idxTwo="24"  coef="-.9264"/><qTerm  idx="-1"  idxOne="4"  idxTwo="27"  coef="-.6808"/><qTerm  idx="-1"  idxOne="4"  idxTwo="28"  coef="-1.5539"/><qTerm  idx="-1"  idxOne="4"  idxTwo="31"  coef="-.8467"/><qTerm  idx="-1"  idxOne="4"  idxTwo="33"  coef=".5803"/><qTerm  idx="-1"  idxOne="5"  idxTwo="7"  coef="-.5513"/><qTerm  idx="-1"  idxOne="5"  idxTwo="8"  coef="-.114"/><qTerm  idx="-1"  idxOne="5"  idxTwo="9"  coef=".4248"/><qTerm  idx="-1"  idxOne="5"  idxTwo="10"  coef="1.3885"/><qTerm  idx="-1"  idxOne="5"  idxTwo="12"  coef="-.9926"/><qTerm  idx="-1"  idxOne="5"  idxTwo="18"  coef=".1472"/><qTerm  idx="-1"  idxOne="5"  idxTwo="23"  coef="1.8429"/><qTerm  idx="-1"  idxOne="5"  idxTwo="25"  coef=".327"/><qTerm  idx="-1"  idxOne="5"  idxTwo="26"  coef="-1.4082"/><qTerm  idx="-1"  idxOne="5"  idxTwo="28"  coef="-.929"/><qTerm  idx="-1"  idxOne="5"  idxTwo="29"  coef="-.1079"/><qTerm  idx="-1"  idxOne="5"  idxTwo="30"  coef="-1.7323"/><qTerm  idx="-1"  idxOne="5"  idxTwo="31"  coef="1.0024"/><qTerm  idx="-1"  idxOne="5"  idxTwo="32"  coef="1.2203"/><qTerm  idx="-1"  idxOne="5"  idxTwo="35"  coef="-1.2902"/><qTerm  idx="-1"  idxOne="5"  idxTwo="38"  coef="1.4852"/><qTerm  idx="-1"  idxOne="6"  idxTwo="7"  coef="-1.04e-2"/><qTerm  idx="-1"  idxOne="6"  idxTwo="8"  coef="-1.4929"/><qTerm  idx="-1"  idxOne="6"  idxTwo="11"  coef="1.1184"/><qTerm  idx="-1"  idxOne="6"  idxTwo="14"  coef="-8.37e-2"/><qTerm  idx="-1"  idxOne="6"  idxTwo="16"  coef=".118"/><qTerm  idx="-1"  idxOne="6"  idxTwo="17"  coef="-1.6759"/><qTerm  idx="-1"  idxOne="6"  idxTwo="18"  coef="-.4536"/><qTerm  idx="-1"  idxOne="6"  idxTwo="19"  coef="-.9957"/><qTerm  idx="-1"  idxOne="6"  idxTwo="20"  coef="-1.0872"/><qTerm  idx="-1"  idxOne="6"  idxTwo="21"  coef="7.57e-2"/><qTerm  idx="-1"  idxOne="6"  idxTwo="23"  coef="1.1813"/><qTerm  idx="-1"  idxOne="6"  idxTwo="24"  coef="-1.3981"/><qTerm  idx="-1"  idxOne="6"  idxTwo="25"  coef="-.5833"/><qTerm  idx="-1"  idxOne="6"  idxTwo="26"  coef="-.1012"/><qTerm  idx="-1"  idxOne="6"  idxTwo="27"  coef="1.1459"/><qTerm  idx="-1"  idxOne="6"  idxTwo="29"  coef="-1.1597"/><qTerm  idx="-1"  idxOne="6"  idxTwo="31"  coef="-.8181"/><qTerm  idx="-1"  idxOne="6"  idxTwo="32"  coef="-.3401"/><qTerm  idx="-1"  idxOne="6"  idxTwo="33"  coef="-.2714"/><qTerm  idx="-1"  idxOne="6"  idxTwo="34"  coef="-1.4488"/><qTerm  idx="-1"  idxOne="6"  idxTwo="37"  coef="-.6681"/><qTerm  idx="-1"  idxOne="7"  idxTwo="7"  coef="1.6262"/><qTerm  idx="-1"  idxOne="7"  idxTwo="8"  coef="-.8207"/><qTerm  idx="-1"  idxOne="7"  idxTwo="9"  coef="1.2882"/><qTerm  idx="-1"  idxOne="7"  idxTwo="10"  coef="-.795"/><qTerm  idx="-1"  idxOne="7"  idxTwo="11"  coef="-1.2134"/><qTerm  idx="-1"  idxOne="7"  idxTwo="13"  coef="-1.3897"/><qTerm  idx="-1"  idxOne="7"  idxTwo="16"  coef=".2119"/><qTerm  idx="-1"  idxOne="7"  idxTwo="17"  coef="-.2862"/><qTerm  idx="-1"  idxOne="7"  idxTwo="19"  coef="-.2809"/><qTerm  idx="-1"  idxOne="7"  idxTwo="21"  coef=".3429"/><qTerm  idx="-1"  idxOne="7"  idxTwo="22"  coef="-.1098"/><qTerm  idx="-1"  idxOne="7"  idxTwo="26"  coef="-1.6182"/><qTerm  idx="-1"  idxOne="7"  idxTwo="28"  coef="-1.606"/><qTerm  idx="-1"  idxOne="7"  idxTwo="30"  coef="-1.5376"/><qTerm  idx="-1"  idxOne="7"  idxTwo="31"  coef="-1.2461"/><qTerm  idx="-1"  idxOne="7"  idxTwo="33"  coef=".5642"/><qTerm  idx="-1"  idxOne="7"  idxTwo="35"  coef=".3464"/><qTerm  idx="-1"  idxOne="7"  idxTwo="36"  coef="1.1446"/><qTerm  idx="-1"  idxOne="8"  idxTwo="8"  coef="-1.8936"/><qTerm  idx="-1"  idxOne="8"  idxTwo="9"  coef="-.57"/><qTerm  idx="-1"  idxOne="8"  idxTwo="10"  coef=".6057"/><qTerm  idx="-1"  idxOne="8"  idxTwo="11"  coef="-.9069"/><qTerm  idx="-1"  idxOne="8"  idxTwo="12"  coef=".8886"/><qTerm  idx="-1"  idxOne="8"  idxTwo="15"  coef="3.51e-2"/><qTerm  idx="-1"  idxOne="8"  idxTwo="16"  coef=".9757"/><qTerm  idx="-1"  idxOne="8"  idxTwo="17"  coef="-.4007"/><qTerm  idx="-1"  idxOne="8"  idxTwo="18"  coef="-1.0456"/><qTerm  idx="-1"  idxOne="8"  idxTwo="20"  coef="-.1128"/><qTerm  idx="-1"  idxOne="8"  idxTwo="23"  coef="-1.6933"/><qTerm  idx="-1"  idxOne="8"  idxTwo="24"  coef="1.4214"/><qTerm  idx="-1"  idxOne="8"  idxTwo="25"  coef="1.5366"/><qTerm  idx="-1"  idxOne="8"  idxTwo="26"  coef="1.5721"/><qTerm  idx="-1"  idxOne="8"  idxTwo="27"  coef=".6767"/><qTerm  idx="-1"  idxOne="8"  idxTwo="28"  coef=".2448"/><qTerm  idx="-1"  idxOne="8"  idxTwo="30"  coef="-.8856"/><qTerm  idx="-1"  idxOne="8"  idxTwo="31"  coef=".8477"/><qTerm  idx="-1"  idxOne="8"  idxTwo="32"  coef=".6651"/><qTerm  idx="-1"  idxOne="8"  idxTwo="34"  coef="1.8519"/><qTerm  idx="-1"  idxOne="8"  idxTwo="35"  coef="1.8687"/><qTerm  idx="-1"  idxOne="8"  idxTwo="36"  coef="1.1627"/><qTerm  idx="-1"  idxOne="8"  idxTwo="39"  coef="1.4877"/><qTerm  idx="-1"  idxOne="9"  idxTwo="10"  coef="-1.3189"/><qTerm  idx="-1"  idxOne="9"  idxTwo="12"  coef="1.5534"/><qTerm  idx="-1"  idxOne="9"  idxTwo="15"  coef="-1.9467"/><qTerm  idx="-1"  idxOne="9"  idxTwo="16"  coef="-1.5533"/><qTerm  idx="-1"  idxOne="9"  idxTwo="17"  coef=".4398"/><qTerm  idx="-1"  idxOne="9"  idxTwo="22"  coef="1.342"/><qTerm  idx="-1"  idxOne="9"  idxTwo="24"  coef="-1.3219"/><qTerm  idx="-1"  idxOne="9"  idxTwo="25"  coef="-.4603"/><qTerm  idx="-1"  idxOne="9"  idxTwo="26"  coef="-.1381"/><qTerm  idx="-1"  idxOne="9"  idxTwo="30"  coef=".9522"/><qTerm  idx="-1"  idxOne="9"  idxTwo="32"  coef=".8342"/><qTerm  idx="-1"  idxOne="9"  idxTwo="34"  coef="-.8773"/><qTerm  idx="-1"  idxOne="9"  idxTwo="38"  coef="-.9284"/><qTerm  idx="-1"  idxOne="9"  idxTwo="39"  coef="1.3577"/><qTerm  idx="-1"  idxOne="10"  idxTwo="11"  coef="-.7977"/><qTerm  idx="-1"  idxOne="10"  idxTwo="13"  coef="-.3892"/><qTerm  idx="-1"  idxOne="10"  idxTwo="15"  coef="1.7113"/><qTerm  idx="-1"  idxOne="10"  idxTwo="19"  coef="1.7355"/><qTerm  idx="-1"  idxOne="10"  idxTwo="20"  coef="-1.3955"/><qTerm  idx="-1"  idxOne="10"  idxTwo="21"  coef="-1.0991"/><qTerm  idx="-1"  idxOne="10"  idxTwo="22"  coef="-1.563"/><qTerm  idx="-1"  idxOne="10"  idxTwo="27"  coef="1.7703"/><qTerm  idx="-1"  idxOne="10"  idxTwo="28"  coef="1.1535"/><qTerm  idx="-1"  idxOne="10"  idxTwo="29"  coef="-.1353"/><qTerm  idx="-1"  idxOne="10"  idxTwo="31"  coef="-1.1831"/><qTerm  idx="-1"  idxOne="10"  idxTwo="35"  coef=".6392"/><qTerm  idx="-1"  idxOne="11"  idxTwo="11"  coef="-5.61e-2"/><qTerm  idx="-1"  idxOne="11"  idxTwo="12"  coef="-1.47e-2"/><qTerm  idx="-1"  idxOne="11"  idxTwo="13"  coef="-.5047"/><qTerm  idx="-1"  idxOne="11"  idxTwo="15"  coef="-1.3298"/><qTerm  idx="-1"  idxOne="11"  idxTwo="17"  coef="-1.4789"/><qTerm  idx="-1"  idxOne="11"  idxTwo="19"  coef="-1.9545"/><qTerm  idx="-1"  idxOne="11"  idxTwo="22"  coef="-.809"/><qTerm  idx="-1"  idxOne="11"  idxTwo="26"  coef="-.9117"/><qTerm  idx="-1"  idxOne="11"  idxTwo="28"  coef="-.6755"/><qTerm  idx="-1"  idxOne="11"  idxTwo="29"  coef="-1.2473"/><qTerm  idx="-1"  idxOne="11"  idxTwo="30"  coef="-1.76e-2"/><qTerm  idx="-1"  idxOne="11"  idxTwo="31"  coef=".6312"/><qTerm  idx="-1"  idxOne="11"  idxTwo="33"  coef="7.34e-2"/><qTerm  idx="-1"  idxOne="11"  idxTwo="36"  coef="1.5935"/><qTerm  idx="-1"  idxOne="11"  idxTwo="37"  coef="-.1467"/><qTerm  idx="-1"  idxOne="11"  idxTwo="38"  coef="-1.5443"/><qTerm  idx="-1"  idxOne="11"  idxTwo="39"  coef="-1.204"/><qTerm  idx="-1"  idxOne="12"  idxTwo="12"  coef="-.6083"/><qTerm  idx="-1"  idxOne="12"  idxTwo="13"  coef="-.3846"/><qTerm  idx="-1"  idxOne="12"  idxTwo="14"  coef="-1.4486"/><qTerm  idx="-1"  idxOne="12"  idxTwo="16"  coef=".5339"/><qTerm  idx="-1"  idxOne="12"  idxTwo="18"  coef="-2.48e-2"/><qTerm  idx="-1"  idxOne="12"  idxTwo="21"  coef="3.4e-2"/><qTerm  idx="-1"  idxOne="12"  idxTwo="22"  coef="1.5377"/><qTerm  idx="-1"  idxOne="12"  idxTwo="23"  coef="-1.9577"/><qTerm  idx="-1"  idxOne="12"  idxTwo="25"  coef="-1.246"/><qTerm  idx="-1"  idxOne="12"  idxTwo="27"  coef=".6862"/><qTerm  idx="-1"  idxOne="12"  idxTwo="29"  coef="-.6059"/><qTerm  idx="-1"  idxOne="12"  idxTwo="31"  coef="5.28e-2"/><qTerm  idx="-1"  idxOne="12"  idxTwo="34"  coef=".9142"/><qTerm  idx="-1"  idxOne="12"  idxTwo="35"  coef="-.1003"/><qTerm  idx="-1"  idxOne="12"  idxTwo="38"  coef="1.5264"/><qTerm  idx="-1"  idxOne="13"  idxTwo="13"  coef="-1.5051"/><qTerm  idx="-1"  idxOne="13"  idxTwo="18"  coef="-.3708"/><qTerm  idx="-1"  idxOne="13"  idxTwo="20"  coef="-.9543"/><qTerm  idx="-1"  idxOne="13"  idxTwo="22"  coef="1.5737"/><qTerm  idx="-1"  idxOne="13"  idxTwo="24"  coef="-.8915"/><qTerm  idx="-1"  idxOne="13"  idxTwo="26"  coef="1.7208"/><qTerm  idx="-1"  idxOne="13"  idxTwo="27"  coef="-1.2866"/><qTerm  idx="-1"  idxOne="13"  idxTwo="28"  coef="1.9744"/><qTerm  idx="-1"  idxOne="13"  idxTwo="30"  coef="1.0902"/><qTerm  idx="-1"  idxOne="13"  idxTwo="31"  coef="-.3685"/><qTerm  idx="-1"  idxOne="13"  idxTwo="34"  coef=".315"/><qTerm  idx="-1"  idxOne="13"  idxTwo="35"  coef="-1.6187"/><qTerm  idx="-1"  idxOne="13"  idxTwo="36"  coef=".7699"/><qTerm  idx="-1"  idxOne="14"  idxTwo="16"  coef=".6257"/><qTerm  idx="-1"  idxOne="14"  idxTwo="17"  coef=".6247"/><qTerm  idx="-1"  idxOne="14"  idxTwo="18"  coef="-1.9604"/><qTerm  idx="-1"  idxOne="14"  idxTwo="19"  coef="-.3161"/><qTerm  idx="-1"  idxOne="14"  idxTwo="21"  coef="1.9851"/><qTerm  idx="-1"  idxOne="14"  idxTwo="22"  coef="-.4229"/><qTerm  idx="-1"  idxOne="14"  idxTwo="26"  coef=".6242"/><qTerm  idx="-1"  idxOne="14"  idxTwo="30"  coef="-.5684"/><qTerm  idx="-1"  idxOne="14"  idxTwo="31"  coef="-1.9704"/><qTerm  idx="-1"  idxOne="14"  idxTwo="32"  coef=".4923"/><qTerm  idx="-1"  idxOne="14"  idxTwo="35"  coef="2.56e-2"/><qTerm  idx="-1"  idxOne="14"  idxTwo="36"  coef=".5363"/><qTerm  idx="-1"  idxOne="14"  idxTwo="37"  coef="1.0525"/><qTerm  idx="-1"  idxOne="14"  idxTwo="38"  coef=".4642"/><qTerm  idx="-1"  idxOne="15"  idxTwo="18"  coef="-.3693"/><qTerm  idx="-1"  idxOne="15"  idxTwo="19"  coef="1.6156"/><qTerm  idx="-1"  idxOne="15"  idxTwo="25"  coef=".8711"/><qTerm  idx="-1"  idxOne="15"  idxTwo="27"  coef="-.8924"/><qTerm  idx="-1"  idxOne="15"  idxTwo="28"  coef=".9238"/><qTerm  idx="-1"  idxOne="15"  idxTwo="29"  coef=".9263"/><qTerm  idx="-1"  idxOne="15"  idxTwo="32"  coef="-1.4562"/><qTerm  idx="-1"  idxOne="15"  idxTwo="33"  coef=".6408"/><qTerm  idx="-1"  idxOne="15"  idxTwo="34"  coef="-1.3941"/><qTerm  idx="-1"  idxOne="15"  idxTwo="35"  coef="-.9036"/><qTerm  idx="-1"  idxOne="15"  idxTwo="37"  coef=".8723"/><qTerm  idx="-1"  idxOne="15"  idxTwo="38"  coef="-.3105"/><qTerm  idx="-1"  idxOne="16"  idxTwo="17"  coef="-1.1983"/><qTerm  idx="-1"  idxOne="16"  idxTwo="20"  coef="1.4685"/><qTerm  idx="-1"  idxOne="16"  idxTwo="22"  coef="-1.2155"/><qTerm  idx="-1"  idxOne="16"  idxTwo="23"  coef="-1.3493"/><qTerm  idx="-1"  idxOne="16"  idxTwo="25"  coef="-1.6116"/><qTerm  idx="-1"  idxOne="16"  idxTwo="26"  coef=".1229"/><qTerm  idx="-1"  idxOne="16"  idxTwo="27"  coef="-1.0144"/><qTerm  idx="-1"  idxOne="16"  idxTwo="29"  coef="-.5372"/><qTerm  idx="-1"  idxOne="16"  idxTwo="33"  coef="9.59e-2"/><qTerm  idx="-1"  idxOne="16"  idxTwo="34"  coef="-.5136"/><qTerm  idx="-1"  idxOne="16"  idxTwo="37"  coef="-.7433"/><qTerm  idx="-1"  idxOne="16"  idxTwo="39"  coef="-1.853"/><qTerm  idx="-1"  idxOne="17"  idxTwo="17"  coef="-.4638"/><qTerm  idx="-1"  idxOne="17"  idxTwo="20"  coef="-.6644"/><qTerm  idx="-1"  idxOne="17"  idxTwo="21"  coef="-9.82e-2"/><qTerm  idx="-1"  idxOne="17"  idxTwo="22"  coef="-.4196"/><qTerm  idx="-1"  idxOne="17"  idxTwo="23"  coef=".3889"/><qTerm  idx="-1"  idxOne="17"  idxTwo="24"  coef=".9631"/><qTerm  idx="-1"  idxOne="17"  idxTwo="25"  coef="-1.4923"/><qTerm  idx="-1"  idxOne="17"  idxTwo="27"  coef="-1.5614"/><qTerm  idx="-1"  idxOne="17"  idxTwo="30"  coef="-.2176"/><qTerm  idx="-1"  idxOne="17"  idxTwo="31"  coef="-.8163"/><qTerm  idx="-1"  idxOne="17"  idxTwo="32"  coef=".9579"/><qTerm  idx="-1"  idxOne="17"  idxTwo="34"  coef="-.4876"/><qTerm  idx="-1"  idxOne="17"  idxTwo="37"  coef="-1.2302"/><qTerm  idx="-1"  idxOne="17"  idxTwo="39"  coef="-1.5096"/><qTerm  idx="-1"  idxOne="18"  idxTwo="19"  coef="-.8167"/><qTerm  idx="-1"  idxOne="18"  idxTwo="20"  coef="-.6412"/><qTerm  idx="-1"  idxOne="18"  idxTwo="21"  coef="-1.827"/><qTerm  idx="-1"  idxOne="18"  idxTwo="23"  coef="-.9888"/><qTerm  idx="-1"  idxOne="18"  idxTwo="25"  coef="1.6075"/><qTerm  idx="-1"  idxOne="18"  idxTwo="26"  coef=".4674"/><qTerm  idx="-1"  idxOne="18"  idxTwo="27"  coef="1.6563"/><qTerm  idx="-1"  idxOne="18"  idxTwo="28"  coef="1.614"/><qTerm  idx="-1"  idxOne="18"  idxTwo="30"  coef="-.5682"/><qTerm  idx="-1"  idxOne="18"  idxTwo="31"  coef="-1.242"/><qTerm  idx="-1"  idxOne="18"  idxTwo="32"  coef="1.3305"/><qTerm  idx="-1"  idxOne="18"  idxTwo="33"  coef="1.3752"/><qTerm  idx="-1"  idxOne="18"  idxTwo="34"  coef=".4099"/><qTerm  idx="-1"  idxOne="18"  idxTwo="35"  coef=".9938"/><qTerm  idx="-1"  idxOne="18"  idxTwo="39"  coef=".7388"/><qTerm  idx="-1"  idxOne="19"  idxTwo="22"  coef="-.2973"/><qTerm  idx="-1"  idxOne="19"  idxTwo="24"  coef="-1.7319"/><qTerm  idx="-1"  idxOne="19"  idxTwo="29"  coef="-.6854"/><qTerm  idx="-1"  idxOne="19"  idxTwo="30"  coef=".3846"/><qTerm  idx="-1"  idxOne="19"  idxTwo="32"  coef="1.4288"/><qTerm  idx="-1"  idxOne="19"  idxTwo="33"  coef="-1.0694"/><qTerm  idx="-1"  idxOne="19"  idxTwo="34"  coef=".1234"/><qTerm  idx="-1"  idxOne="19"  idxTwo="35"  coef=".5524"/><qTerm  idx="-1"  idxOne="19"  idxTwo="36"  coef="1.085"/><qTerm  idx="-1"  idxOne="19"  idxTwo="37"  coef="-.2222"/><qTerm  idx="-1"  idxOne="19"  idxTwo="38"  coef="1.9494"/><qTerm  idx="-1"  idxOne="20"  idxTwo="20"  coef="-.7267"/><qTerm  idx="-1"  idxOne="20"  idxTwo="25"  coef="-1.2259"/><qTerm  idx="-1"  idxOne="20"  idxTwo="26"  coef="1.6408"/><qTerm  idx="-1"  idxOne="20"  idxTwo="28"  coef=".7834"/><qTerm  idx="-1"  idxOne="20"  idxTwo="29"  coef="1.6814"/><qTerm  idx="-1"  idxOne="20"  idxTwo="30"  coef="-1.2983"/><qTerm  idx="-1"  idxOne="20"  idxTwo="31"  coef="-1.2529"/><qTerm  idx="-1"  idxOne="20"  idxTwo="32"  coef=".1603"/><qTerm  idx="-1"  idxOne="20"  idxTwo="34"  coef=".9039"/><qTerm  idx="-1"  idxOne="20"  idxTwo="35"  coef="-1.1297"/><qTerm  idx="-1"  idxOne="20"  idxTwo="36"  coef="-.4971"/><qTerm  idx="-1"  idxOne="20"  idxTwo="38"  coef=".1113"/><qTerm  idx="-1"  idxOne="21"  idxTwo="23"  coef="-1.995"/><qTerm  idx="-1"  idxOne="21"  idxTwo="24"  coef=".8867"/><qTerm  idx="-1"  idxOne="21"  idxTwo="26"  coef="-1.8068"/><qTerm  idx="-1"  idxOne="21"  idxTwo="27"  coef="-1.378"/><qTerm  idx="-1"  idxOne="21"  idxTwo="28"  coef="-1.7378"/><qTerm  idx="-1"  idxOne="21"  idxTwo="31"  coef="1.8845"/><qTerm  idx="-1"  idxOne="21"  idxTwo="34"  coef="1.7625"/><qTerm  idx="-1"  idxOne="21"  idxTwo="38"  coef=".593"/><qTerm  idx="-1"  idxOne="21"  idxTwo="39"  coef="1.3838"/><qTerm  idx="-1"  idxOne="22"  idxTwo="25"  coef="-1.2623"/><qTerm  idx="-1"  idxOne="22"  idxTwo="26"  coef=".4962"/><qTerm  idx="-1"  idxOne="22"  idxTwo="28"  coef="-1.8067"/><qTerm  idx="-1"  idxOne="22"  idxTwo="30"  coef="-.5026"/><qTerm  idx="-1"  idxOne="22"  idxTwo="31"  coef="-1.8351"/><qTerm  idx="-1"  idxOne="22"  idxTwo="33"  coef="-7.13e-2"/><qTerm  idx="-1"  idxOne="22"  idxTwo="35"  coef=".4135"/><qTerm  idx="-1"  idxOne="22"  idxTwo="36"  coef="1.1338"/><qTerm  idx="-1"  idxOne="23"  idxTwo="23"  coef=".5423"/><qTerm  idx="-1"  idxOne="23"  idxTwo="25"  coef="-1.8585"/><qTerm  idx="-1"  idxOne="23"  idxTwo="26"  coef="-.7627"/><qTerm  idx="-1"  idxOne="23"  idxTwo="29"  coef="-1.1533"/><qTerm  idx="-1"  idxOne="23"  idxTwo="30"  coef="-.5696"/><qTerm  idx="-1"  idxOne="23"  idxTwo="31"  coef="1.2872"/><qTerm  idx="-1"  idxOne="23"  idxTwo="32"  coef="-6.89e-2"/><qTerm  idx="-1"  idxOne="23"  idxTwo="34"  coef="-.866"/><qTerm  idx="-1"  idxOne="23"  idxTwo="35"  coef="-.5424"/><qTerm  idx="-1"  idxOne="23"  idxTwo="36"  coef="-7.13e-2"/><qTerm  idx="-1"  idxOne="23"  idxTwo="37"  coef="-.5488"/><qTerm  idx="-1"  idxOne="23"  idxTwo="39"  coef="-1.2626"/><qTerm  idx="-1"  idxOne="24"  idxTwo="24"  coef="1.0585"/><qTerm  idx="-1"  idxOne="24"  idxTwo="25"  coef="-1.8375"/><qTerm  idx="-1"  idxOne="24"  idxTwo="26"  coef="-1.7375"/><qTerm  idx="-1"  idxOne="24"  idxTwo="27"  coef="-.7223"/><qTerm  idx="-1"  idxOne="24"  idxTwo="28"  coef="1.7499"/><qTerm  idx="-1"  idxOne="24"  idxTwo="30"  coef=".5252"/><qTerm  idx="-1"  idxOne="24"  idxTwo="31"  coef="-1.1065"/><qTerm  idx="-1"  idxOne="24"  idxTwo="32"  coef="1.8525"/><qTerm  idx="-1"  idxOne="25"  idxTwo="28"  coef="-.6034"/><qTerm  idx="-1"  idxOne="25"  idxTwo="33"  coef="-1.8589"/><qTerm  idx="-1"  idxOne="25"  idxTwo="34"  coef="1.5443"/><qTerm  idx="-1"  idxOne="25"  idxTwo="36"  coef=".5982"/><qTerm  idx="-1"  idxOne="26"  idxTwo="26"  coef="7.53e-2"/><qTerm  idx="-1"  idxOne="26"  idxTwo="27"  coef="-1.903"/><qTerm  idx="-1"  idxOne="26"  idxTwo="28"  coef="-1.5818"/><qTerm  idx="-1"  idxOne="26"  idxTwo="29"  coef="-.589"/><qTerm  idx="-1"  idxOne="26"  idxTwo="32"  coef=".2121"/><qTerm  idx="-1"  idxOne="26"  idxTwo="34"  coef="-.6077"/><qTerm  idx="-1"  idxOne="26"  idxTwo="35"  coef="1.0129"/><qTerm  idx="-1"  idxOne="26"  idxTwo="37"  coef=".6672"/><qTerm  idx="-1"  idxOne="26"  idxTwo="38"  coef="1.8263"/><qTerm  idx="-1"  idxOne="27"  idxTwo="30"  coef="-2.13e-2"/><qTerm  idx="-1"  idxOne="27"  idxTwo="31"  coef="-.3119"/><qTerm  idx="-1"  idxOne="27"  idxTwo="32"  coef=".6505"/><qTerm  idx="-1"  idxOne="27"  idxTwo="33"  coef=".6041"/><qTerm  idx="-1"  idxOne="27"  idxTwo="35"  coef="8.7e-3"/><qTerm  idx="-1"  idxOne="27"  idxTwo="36"  coef="-1.7052"/><qTerm  idx="-1"  idxOne="27"  idxTwo="38"  coef=".3316"/><qTerm  idx="-1"  idxOne="28"  idxTwo="30"  coef="-.8651"/><qTerm  idx="-1"  idxOne="28"  idxTwo="31"  coef="-1.3237"/><qTerm  idx="-1"  idxOne="28"  idxTwo="34"  coef="4.44e-2"/><qTerm  idx="-1"  idxOne="28"  idxTwo="35"  coef="1.8534"/><qTerm  idx="-1"  idxOne="28"  idxTwo="37"  coef="-1.5585"/><qTerm  idx="-1"  idxOne="28"  idxTwo="38"  coef=".6964"/><qTerm  idx="-1"  idxOne="29"  idxTwo="33"  coef="-.4719"/><qTerm  idx="-1"  idxOne="29"  idxTwo="34"  coef="5.73e-2"/><qTerm  idx="-1"  idxOne="29"  idxTwo="36"  coef="1.8464"/><qTerm  idx="-1"  idxOne="30"  idxTwo="30"  coef="1.667"/><qTerm  idx="-1"  idxOne="30"  idxTwo="31"  coef=".861"/><qTerm  idx="-1"  idxOne="30"  idxTwo="36"  coef="-1.706"/><qTerm  idx="-1"  idxOne="30"  idxTwo="37"  coef="-1.7798"/><qTerm  idx="-1"  idxOne="30"  idxTwo="38"  coef="1.4364"/><qTerm  idx="-1"  idxOne="31"  idxTwo="34"  coef=".4423"/><qTerm  idx="-1"  idxOne="31"  idxTwo="36"  coef="1.9674"/><qTerm  idx="-1"  idxOne="31"  idxTwo="39"  coef="1.5525"/><qTerm  idx="-1"  idxOne="32"  idxTwo="34"  coef="-1.67"/><qTerm  idx="-1"  idxOne="32"  idxTwo="35"  coef="-9.86e-2"/><qTerm  idx="-1"  idxOne="32"  idxTwo="38"  coef=".5787"/><qTerm  idx="-1"  idxOne="32"  idxTwo="39"  coef=".9918"/><qTerm  idx="-1"  idxOne="33"  idxTwo="33"  coef="-.9208"/><qTerm  idx="-1"  idxOne="33"  idxTwo="34"  coef="1.124"/><qTerm  idx="-1"  idxOne="33"  idxTwo="36"  coef=".9713"/><qTerm  idx="-1"  idxOne="33"  idxTwo="37"  coef="-.184"/><qTerm  idx="-1"  idxOne="34"  idxTwo="37"  coef=".9759"/><qTerm  idx="-1"  idxOne="35"  idxTwo="38"  coef=".5614"/><qTerm  idx="-1"  idxOne="37"  idxTwo="38"  coef="4.32e-2"/><qTerm  idx="-1"  idxOne="38"  idxTwo="38"  coef="-1.8651"/></quadraticCoefficients></instanceData></osil>
